NAME          
ROWS
 N  OBJ
 L  c1
 L  c2
 L  c3
 L  c4
 L  c5
COLUMNS
    MARKER    'MARKER'                 'INTORG'
    x[1]      c1        968
    x[1]      c2        640
    x[1]      c3        309
    x[1]      c4        720
    x[1]      c5        829
    x[1]      OBJ       -192
    x[2]      c1        158
    x[2]      c2        878
    x[2]      c3        449
    x[2]      c4        799
    x[2]      c5        622
    x[2]      OBJ       -203
    x[3]      c1        507
    x[3]      c2        899
    x[3]      c3        956
    x[3]      c4        925
    x[3]      c5        663
    x[3]      OBJ       -930
    x[4]      c1        749
    x[4]      c2        863
    x[4]      c3        266
    x[4]      c4        6
    x[4]      c5        419
    x[4]      OBJ       -747
    x[5]      c1        647
    x[5]      c2        232
    x[5]      c3        900
    x[5]      c4        31
    x[5]      c5        972
    x[5]      OBJ       -833
    x[6]      c1        259
    x[6]      c2        650
    x[6]      c3        5
    x[6]      c4        836
    x[6]      c5        595
    x[6]      OBJ       -323
    x[7]      c1        10
    x[7]      c2        818
    x[7]      c3        909
    x[7]      c4        62
    x[7]      c5        491
    x[7]      OBJ       -822
    x[8]      c1        916
    x[8]      c2        903
    x[8]      c3        911
    x[8]      c4        842
    x[8]      c5        118
    x[8]      OBJ       -845
    x[9]      c1        577
    x[9]      c2        835
    x[9]      c3        457
    x[9]      c4        764
    x[9]      c5        330
    x[9]      OBJ       -994
    x[10]     c1        791
    x[10]     c2        262
    x[10]     c3        494
    x[10]     c4        749
    x[10]     c5        146
    x[10]     OBJ       -554
    x[11]     c1        950
    x[11]     c2        43
    x[11]     c3        839
    x[11]     c4        560
    x[11]     c5        107
    x[11]     OBJ       -632
    x[12]     c1        583
    x[12]     c2        788
    x[12]     c3        171
    x[12]     c4        583
    x[12]     c5        103
    x[12]     OBJ       -131
    x[13]     c1        512
    x[13]     c2        849
    x[13]     c3        425
    x[13]     c4        132
    x[13]     c5        761
    x[13]     OBJ       -584
    x[14]     c1        445
    x[14]     c2        397
    x[14]     c3        196
    x[14]     c4        281
    x[14]     c5        1
    x[14]     OBJ       -317
    x[15]     c1        28
    x[15]     c2        789
    x[15]     c3        167
    x[15]     c4        607
    x[15]     c5        229
    x[15]     OBJ       -182
    x[16]     c1        795
    x[16]     c2        67
    x[16]     c3        437
    x[16]     c4        394
    x[16]     c5        565
    x[16]     OBJ       -55
    x[17]     c1        390
    x[17]     c2        636
    x[17]     c3        697
    x[17]     c4        203
    x[17]     c5        533
    x[17]     OBJ       -981
    x[18]     c1        661
    x[18]     c2        111
    x[18]     c3        881
    x[18]     c4        934
    x[18]     c5        271
    x[18]     OBJ       -670
    x[19]     c1        272
    x[19]     c2        379
    x[19]     c3        928
    x[19]     c4        617
    x[19]     c5        151
    x[19]     OBJ       -347
    x[20]     c1        439
    x[20]     c2        344
    x[20]     c3        195
    x[20]     c4        766
    x[20]     c5        302
    x[20]     OBJ       -205
    x[21]     c1        11
    x[21]     c2        87
    x[21]     c3        188
    x[21]     c4        252
    x[21]     c5        157
    x[21]     OBJ       -55
    x[22]     c1        165
    x[22]     c2        595
    x[22]     c3        849
    x[22]     c4        900
    x[22]     c5        606
    x[22]     OBJ       -480
    x[23]     c1        963
    x[23]     c2        386
    x[23]     c3        270
    x[23]     c4        805
    x[23]     c5        40
    x[23]     OBJ       -835
    x[24]     c1        443
    x[24]     c2        286
    x[24]     c3        229
    x[24]     c4        949
    x[24]     c5        630
    x[24]     OBJ       -622
    x[25]     c1        790
    x[25]     c2        631
    x[25]     c3        164
    x[25]     c4        343
    x[25]     c5        336
    x[25]     OBJ       -61
    x[26]     c1        252
    x[26]     c2        953
    x[26]     c3        613
    x[26]     c4        153
    x[26]     c5        959
    x[26]     OBJ       -995
    x[27]     c1        744
    x[27]     c2        719
    x[27]     c3        72
    x[27]     c4        870
    x[27]     c5        73
    x[27]     OBJ       -941
    x[28]     c1        463
    x[28]     c2        205
    x[28]     c3        845
    x[28]     c4        605
    x[28]     c5        706
    x[28]     OBJ       -798
    x[29]     c1        508
    x[29]     c2        901
    x[29]     c3        233
    x[29]     c4        791
    x[29]     c5        440
    x[29]     OBJ       -927
    x[30]     c1        449
    x[30]     c2        68
    x[30]     c3        667
    x[30]     c4        880
    x[30]     c5        28
    x[30]     OBJ       -101
    x[31]     c1        737
    x[31]     c2        545
    x[31]     c3        449
    x[31]     c4        542
    x[31]     c5        270
    x[31]     OBJ       -310
    x[32]     c1        695
    x[32]     c2        211
    x[32]     c3        741
    x[32]     c4        987
    x[32]     c5        320
    x[32]     OBJ       -175
    x[33]     c1        873
    x[33]     c2        187
    x[33]     c3        562
    x[33]     c4        599
    x[33]     c5        618
    x[33]     OBJ       -555
    x[34]     c1        61
    x[34]     c2        180
    x[34]     c3        874
    x[34]     c4        816
    x[34]     c5        67
    x[34]     OBJ       -235
    x[35]     c1        47
    x[35]     c2        510
    x[35]     c3        227
    x[35]     c4        724
    x[35]     c5        562
    x[35]     OBJ       -43
    x[36]     c1        141
    x[36]     c2        374
    x[36]     c3        881
    x[36]     c4        697
    x[36]     c5        595
    x[36]     OBJ       -421
    x[37]     c1        729
    x[37]     c2        179
    x[37]     c3        899
    x[37]     c4        441
    x[37]     c5        21
    x[37]     OBJ       -432
    x[38]     c1        800
    x[38]     c2        891
    x[38]     c3        283
    x[38]     c4        83
    x[38]     c5        770
    x[38]     OBJ       -724
    x[39]     c1        289
    x[39]     c2        954
    x[39]     c3        623
    x[39]     c4        492
    x[39]     c5        955
    x[39]     OBJ       -775
    x[40]     c1        303
    x[40]     c2        278
    x[40]     c3        684
    x[40]     c4        10
    x[40]     c5        115
    x[40]     OBJ       -381
RHS
    rhs       c1        10060
    rhs       c2        10262
    rhs       c3        10472
    rhs       c4        11375
    rhs       c5        8238
RANGES
BOUNDS
 BV bounds    x[1]
 BV bounds    x[2]
 BV bounds    x[3]
 BV bounds    x[4]
 BV bounds    x[5]
 BV bounds    x[6]
 BV bounds    x[7]
 BV bounds    x[8]
 BV bounds    x[9]
 BV bounds    x[10]
 BV bounds    x[11]
 BV bounds    x[12]
 BV bounds    x[13]
 BV bounds    x[14]
 BV bounds    x[15]
 BV bounds    x[16]
 BV bounds    x[17]
 BV bounds    x[18]
 BV bounds    x[19]
 BV bounds    x[20]
 BV bounds    x[21]
 BV bounds    x[22]
 BV bounds    x[23]
 BV bounds    x[24]
 BV bounds    x[25]
 BV bounds    x[26]
 BV bounds    x[27]
 BV bounds    x[28]
 BV bounds    x[29]
 BV bounds    x[30]
 BV bounds    x[31]
 BV bounds    x[32]
 BV bounds    x[33]
 BV bounds    x[34]
 BV bounds    x[35]
 BV bounds    x[36]
 BV bounds    x[37]
 BV bounds    x[38]
 BV bounds    x[39]
 BV bounds    x[40]
ENDATA
